\Generated by Cardinal Operations

Maximize
   69978 x_0_0 + 69978 x_0_1 + 69978 x_0_2 + 69978 x_0_3 + 69978 x_0_4 
   + 69978 x_0_5 + 69978 x_0_6 + 69978 x_0_7 + 69978 x_0_8 + 69978 x_0_9 
   + 69978 x_0_10 + 69978 x_0_11 + 69978 x_0_12 + 69978 x_0_13 
   + 54011 x_1_0 + 54011 x_1_1 + 54011 x_1_2 + 54011 x_1_3 + 54011 x_1_4 
   + 54011 x_1_5 + 54011 x_1_6 + 54011 x_1_7 + 54011 x_1_8 + 54011 x_1_9 
   + 54011 x_1_10 + 54011 x_1_11 + 54011 x_1_12 + 54011 x_1_13 
   + 36352 x_2_0 + 36352 x_2_1 + 36352 x_2_2 + 36352 x_2_3 + 36352 x_2_4 
   + 36352 x_2_5 + 36352 x_2_6 + 36352 x_2_7 + 36352 x_2_8 + 36352 x_2_9 
   + 36352 x_2_10 + 36352 x_2_11 + 36352 x_2_12 + 36352 x_2_13 
   + 51521 x_3_0 + 51521 x_3_1 + 51521 x_3_2 + 51521 x_3_3 + 51521 x_3_4 
   + 51521 x_3_5 + 51521 x_3_6 + 51521 x_3_7 + 51521 x_3_8 + 51521 x_3_9 
   + 51521 x_3_10 + 51521 x_3_11 + 51521 x_3_12 + 51521 x_3_13 
   + 50415 x_4_0 + 50415 x_4_1 + 50415 x_4_2 + 50415 x_4_3 + 50415 x_4_4 
   + 50415 x_4_5 + 50415 x_4_6 + 50415 x_4_7 + 50415 x_4_8 + 50415 x_4_9 
   + 50415 x_4_10 + 50415 x_4_11 + 50415 x_4_12 + 50415 x_4_13 
   + 76109 x_5_0 + 76109 x_5_1 + 76109 x_5_2 + 76109 x_5_3 + 76109 x_5_4 
   + 76109 x_5_5 + 76109 x_5_6 + 76109 x_5_7 + 76109 x_5_8 + 76109 x_5_9 
   + 76109 x_5_10 + 76109 x_5_11 + 76109 x_5_12 + 76109 x_5_13 
   + 50462 x_6_0 + 50462 x_6_1 + 50462 x_6_2 + 50462 x_6_3 + 50462 x_6_4 
   + 50462 x_6_5 + 50462 x_6_6 + 50462 x_6_7 + 50462 x_6_8 + 50462 x_6_9 
   + 50462 x_6_10 + 50462 x_6_11 + 50462 x_6_12 + 50462 x_6_13 
   + 28989 x_7_0 + 28989 x_7_1 + 28989 x_7_2 + 28989 x_7_3 + 28989 x_7_4 
   + 28989 x_7_5 + 28989 x_7_6 + 28989 x_7_7 + 28989 x_7_8 + 28989 x_7_9 
   + 28989 x_7_10 + 28989 x_7_11 + 28989 x_7_12 + 28989 x_7_13 
   + 23318 x_8_0 + 23318 x_8_1 + 23318 x_8_2 + 23318 x_8_3 + 23318 x_8_4 
   + 23318 x_8_5 + 23318 x_8_6 + 23318 x_8_7 + 23318 x_8_8 + 23318 x_8_9 
   + 23318 x_8_10 + 23318 x_8_11 + 23318 x_8_12 + 23318 x_8_13 
   + 26142 x_9_0 + 26142 x_9_1 + 26142 x_9_2 + 26142 x_9_3 + 26142 x_9_4 
   + 26142 x_9_5 + 26142 x_9_6 + 26142 x_9_7 + 26142 x_9_8 + 26142 x_9_9 
   + 26142 x_9_10 + 26142 x_9_11 + 26142 x_9_12 + 26142 x_9_13 
   + 42040 x_10_0 + 42040 x_10_1 + 42040 x_10_2 + 42040 x_10_3 
   + 42040 x_10_4 + 42040 x_10_5 + 42040 x_10_6 + 42040 x_10_7 
   + 42040 x_10_8 + 42040 x_10_9 + 42040 x_10_10 + 42040 x_10_11 
   + 42040 x_10_12 + 42040 x_10_13 + 85961 x_11_0 + 85961 x_11_1 
   + 85961 x_11_2 + 85961 x_11_3 + 85961 x_11_4 + 85961 x_11_5 
   + 85961 x_11_6 + 85961 x_11_7 + 85961 x_11_8 + 85961 x_11_9 
   + 85961 x_11_10 + 85961 x_11_11 + 85961 x_11_12 + 85961 x_11_13 
   + 50142 x_12_0 + 50142 x_12_1 + 50142 x_12_2 + 50142 x_12_3 
   + 50142 x_12_4 + 50142 x_12_5 + 50142 x_12_6 + 50142 x_12_7 
   + 50142 x_12_8 + 50142 x_12_9 + 50142 x_12_10 + 50142 x_12_11 
   + 50142 x_12_12 + 50142 x_12_13 + 48478 x_13_0 + 48478 x_13_1 
   + 48478 x_13_2 + 48478 x_13_3 + 48478 x_13_4 + 48478 x_13_5 
   + 48478 x_13_6 + 48478 x_13_7 + 48478 x_13_8 + 48478 x_13_9 
   + 48478 x_13_10 + 48478 x_13_11 + 48478 x_13_12 + 48478 x_13_13 
   + 60953 x_14_0 + 60953 x_14_1 + 60953 x_14_2 + 60953 x_14_3 
   + 60953 x_14_4 + 60953 x_14_5 + 60953 x_14_6 + 60953 x_14_7 
   + 60953 x_14_8 + 60953 x_14_9 + 60953 x_14_10 + 60953 x_14_11 
   + 60953 x_14_12 + 60953 x_14_13 + 95265 x_15_0 + 95265 x_15_1 
   + 95265 x_15_2 + 95265 x_15_3 + 95265 x_15_4 + 95265 x_15_5 
   + 95265 x_15_6 + 95265 x_15_7 + 95265 x_15_8 + 95265 x_15_9 
   + 95265 x_15_10 + 95265 x_15_11 + 95265 x_15_12 + 95265 x_15_13 
   + 22839 x_16_0 + 22839 x_16_1 + 22839 x_16_2 + 22839 x_16_3 
   + 22839 x_16_4 + 22839 x_16_5 + 22839 x_16_6 + 22839 x_16_7 
   + 22839 x_16_8 + 22839 x_16_9 + 22839 x_16_10 + 22839 x_16_11 
   + 22839 x_16_12 + 22839 x_16_13 + 90957 x_17_0 + 90957 x_17_1 
   + 90957 x_17_2 + 90957 x_17_3 + 90957 x_17_4 + 90957 x_17_5 
   + 90957 x_17_6 + 90957 x_17_7 + 90957 x_17_8 + 90957 x_17_9 
   + 90957 x_17_10 + 90957 x_17_11 + 90957 x_17_12 + 90957 x_17_13 
   + 84652 x_18_0 + 84652 x_18_1 + 84652 x_18_2 + 84652 x_18_3 
   + 84652 x_18_4 + 84652 x_18_5 + 84652 x_18_6 + 84652 x_18_7 
   + 84652 x_18_8 + 84652 x_18_9 + 84652 x_18_10 + 84652 x_18_11 
   + 84652 x_18_12 + 84652 x_18_13 + 78991 x_19_0 + 78991 x_19_1 
   + 78991 x_19_2 + 78991 x_19_3 + 78991 x_19_4 + 78991 x_19_5 
   + 78991 x_19_6 + 78991 x_19_7 + 78991 x_19_8 + 78991 x_19_9 
   + 78991 x_19_10 + 78991 x_19_11 + 78991 x_19_12 + 78991 x_19_13 
Subject To
 capacity_constraint: 18 x_0_0 + 42 x_1_0 + 49 x_2_0 + 42 x_3_0 + 41 x_4_0 
   + 48 x_5_0 + 22 x_6_0 + 29 x_7_0 + 45 x_8_0 + 14 x_9_0 + 38 x_10_0 
   + 47 x_11_0 + 45 x_12_0 + 28 x_13_0 + 24 x_14_0 + 39 x_15_0 + 32 x_16_0 
   + 36 x_17_0 + 14 x_18_0 + 16 x_19_0 <= 356
 18 x_0_1 + 42 x_1_1 + 49 x_2_1 + 42 x_3_1 + 41 x_4_1 + 48 x_5_1 + 22 x_6_1 
   + 29 x_7_1 + 45 x_8_1 + 14 x_9_1 + 38 x_10_1 + 47 x_11_1 + 45 x_12_1 
   + 28 x_13_1 + 24 x_14_1 + 39 x_15_1 + 32 x_16_1 + 36 x_17_1 + 14 x_18_1 
   + 16 x_19_1 <= 478
 18 x_0_2 + 42 x_1_2 + 49 x_2_2 + 42 x_3_2 + 41 x_4_2 + 48 x_5_2 + 22 x_6_2 
   + 29 x_7_2 + 45 x_8_2 + 14 x_9_2 + 38 x_10_2 + 47 x_11_2 + 45 x_12_2 
   + 28 x_13_2 + 24 x_14_2 + 39 x_15_2 + 32 x_16_2 + 36 x_17_2 + 14 x_18_2 
   + 16 x_19_2 <= 305
 18 x_0_3 + 42 x_1_3 + 49 x_2_3 + 42 x_3_3 + 41 x_4_3 + 48 x_5_3 + 22 x_6_3 
   + 29 x_7_3 + 45 x_8_3 + 14 x_9_3 + 38 x_10_3 + 47 x_11_3 + 45 x_12_3 
   + 28 x_13_3 + 24 x_14_3 + 39 x_15_3 + 32 x_16_3 + 36 x_17_3 + 14 x_18_3 
   + 16 x_19_3 <= 291
 18 x_0_4 + 42 x_1_4 + 49 x_2_4 + 42 x_3_4 + 41 x_4_4 + 48 x_5_4 + 22 x_6_4 
   + 29 x_7_4 + 45 x_8_4 + 14 x_9_4 + 38 x_10_4 + 47 x_11_4 + 45 x_12_4 
   + 28 x_13_4 + 24 x_14_4 + 39 x_15_4 + 32 x_16_4 + 36 x_17_4 + 14 x_18_4 
   + 16 x_19_4 <= 168
 18 x_0_5 + 42 x_1_5 + 49 x_2_5 + 42 x_3_5 + 41 x_4_5 + 48 x_5_5 + 22 x_6_5 
   + 29 x_7_5 + 45 x_8_5 + 14 x_9_5 + 38 x_10_5 + 47 x_11_5 + 45 x_12_5 
   + 28 x_13_5 + 24 x_14_5 + 39 x_15_5 + 32 x_16_5 + 36 x_17_5 + 14 x_18_5 
   + 16 x_19_5 <= 449
 18 x_0_6 + 42 x_1_6 + 49 x_2_6 + 42 x_3_6 + 41 x_4_6 + 48 x_5_6 + 22 x_6_6 
   + 29 x_7_6 + 45 x_8_6 + 14 x_9_6 + 38 x_10_6 + 47 x_11_6 + 45 x_12_6 
   + 28 x_13_6 + 24 x_14_6 + 39 x_15_6 + 32 x_16_6 + 36 x_17_6 + 14 x_18_6 
   + 16 x_19_6 <= 139
 18 x_0_7 + 42 x_1_7 + 49 x_2_7 + 42 x_3_7 + 41 x_4_7 + 48 x_5_7 + 22 x_6_7 
   + 29 x_7_7 + 45 x_8_7 + 14 x_9_7 + 38 x_10_7 + 47 x_11_7 + 45 x_12_7 
   + 28 x_13_7 + 24 x_14_7 + 39 x_15_7 + 32 x_16_7 + 36 x_17_7 + 14 x_18_7 
   + 16 x_19_7 <= 383
 18 x_0_8 + 42 x_1_8 + 49 x_2_8 + 42 x_3_8 + 41 x_4_8 + 48 x_5_8 + 22 x_6_8 
   + 29 x_7_8 + 45 x_8_8 + 14 x_9_8 + 38 x_10_8 + 47 x_11_8 + 45 x_12_8 
   + 28 x_13_8 + 24 x_14_8 + 39 x_15_8 + 32 x_16_8 + 36 x_17_8 + 14 x_18_8 
   + 16 x_19_8 <= 472
 18 x_0_9 + 42 x_1_9 + 49 x_2_9 + 42 x_3_9 + 41 x_4_9 + 48 x_5_9 + 22 x_6_9 
   + 29 x_7_9 + 45 x_8_9 + 14 x_9_9 + 38 x_10_9 + 47 x_11_9 + 45 x_12_9 
   + 28 x_13_9 + 24 x_14_9 + 39 x_15_9 + 32 x_16_9 + 36 x_17_9 + 14 x_18_9 
   + 16 x_19_9 <= 288
 18 x_0_10 + 42 x_1_10 + 49 x_2_10 + 42 x_3_10 + 41 x_4_10 + 48 x_5_10 
   + 22 x_6_10 + 29 x_7_10 + 45 x_8_10 + 14 x_9_10 + 38 x_10_10 
   + 47 x_11_10 + 45 x_12_10 + 28 x_13_10 + 24 x_14_10 + 39 x_15_10 
   + 32 x_16_10 + 36 x_17_10 + 14 x_18_10 + 16 x_19_10 <= 320
 18 x_0_11 + 42 x_1_11 + 49 x_2_11 + 42 x_3_11 + 41 x_4_11 + 48 x_5_11 
   + 22 x_6_11 + 29 x_7_11 + 45 x_8_11 + 14 x_9_11 + 38 x_10_11 
   + 47 x_11_11 + 45 x_12_11 + 28 x_13_11 + 24 x_14_11 + 39 x_15_11 
   + 32 x_16_11 + 36 x_17_11 + 14 x_18_11 + 16 x_19_11 <= 250
 18 x_0_12 + 42 x_1_12 + 49 x_2_12 + 42 x_3_12 + 41 x_4_12 + 48 x_5_12 
   + 22 x_6_12 + 29 x_7_12 + 45 x_8_12 + 14 x_9_12 + 38 x_10_12 
   + 47 x_11_12 + 45 x_12_12 + 28 x_13_12 + 24 x_14_12 + 39 x_15_12 
   + 32 x_16_12 + 36 x_17_12 + 14 x_18_12 + 16 x_19_12 <= 402
 18 x_0_13 + 42 x_1_13 + 49 x_2_13 + 42 x_3_13 + 41 x_4_13 + 48 x_5_13 
   + 22 x_6_13 + 29 x_7_13 + 45 x_8_13 + 14 x_9_13 + 38 x_10_13 
   + 47 x_11_13 + 45 x_12_13 + 28 x_13_13 + 24 x_14_13 + 39 x_15_13 
   + 32 x_16_13 + 36 x_17_13 + 14 x_18_13 + 16 x_19_13 <= 293
Generals
 x_0_0  x_0_1  x_0_2  x_0_3  x_0_4  x_0_5  x_0_6  x_0_7  x_0_8  x_0_9  
 x_0_10  x_0_11  x_0_12  x_0_13  x_1_0  x_1_1  x_1_2  x_1_3  x_1_4  x_1_5  
 x_1_6  x_1_7  x_1_8  x_1_9  x_1_10  x_1_11  x_1_12  x_1_13  x_2_0  x_2_1  
 x_2_2  x_2_3  x_2_4  x_2_5  x_2_6  x_2_7  x_2_8  x_2_9  x_2_10  x_2_11  
 x_2_12  x_2_13  x_3_0  x_3_1  x_3_2  x_3_3  x_3_4  x_3_5  x_3_6  x_3_7  
 x_3_8  x_3_9  x_3_10  x_3_11  x_3_12  x_3_13  x_4_0  x_4_1  x_4_2  x_4_3  
 x_4_4  x_4_5  x_4_6  x_4_7  x_4_8  x_4_9  x_4_10  x_4_11  x_4_12  x_4_13  
 x_5_0  x_5_1  x_5_2  x_5_3  x_5_4  x_5_5  x_5_6  x_5_7  x_5_8  x_5_9  
 x_5_10  x_5_11  x_5_12  x_5_13  x_6_0  x_6_1  x_6_2  x_6_3  x_6_4  x_6_5  
 x_6_6  x_6_7  x_6_8  x_6_9  x_6_10  x_6_11  x_6_12  x_6_13  x_7_0  x_7_1  
 x_7_2  x_7_3  x_7_4  x_7_5  x_7_6  x_7_7  x_7_8  x_7_9  x_7_10  x_7_11  
 x_7_12  x_7_13  x_8_0  x_8_1  x_8_2  x_8_3  x_8_4  x_8_5  x_8_6  x_8_7  
 x_8_8  x_8_9  x_8_10  x_8_11  x_8_12  x_8_13  x_9_0  x_9_1  x_9_2  x_9_3  
 x_9_4  x_9_5  x_9_6  x_9_7  x_9_8  x_9_9  x_9_10  x_9_11  x_9_12  x_9_13  
 x_10_0  x_10_1  x_10_2  x_10_3  x_10_4  x_10_5  x_10_6  x_10_7  x_10_8  
 x_10_9  x_10_10  x_10_11  x_10_12  x_10_13  x_11_0  x_11_1  x_11_2  
 x_11_3  x_11_4  x_11_5  x_11_6  x_11_7  x_11_8  x_11_9  x_11_10  x_11_11  
 x_11_12  x_11_13  x_12_0  x_12_1  x_12_2  x_12_3  x_12_4  x_12_5  x_12_6  
 x_12_7  x_12_8  x_12_9  x_12_10  x_12_11  x_12_12  x_12_13  x_13_0  
 x_13_1  x_13_2  x_13_3  x_13_4  x_13_5  x_13_6  x_13_7  x_13_8  x_13_9  
 x_13_10  x_13_11  x_13_12  x_13_13  x_14_0  x_14_1  x_14_2  x_14_3  
 x_14_4  x_14_5  x_14_6  x_14_7  x_14_8  x_14_9  x_14_10  x_14_11  x_14_12  
 x_14_13  x_15_0  x_15_1  x_15_2  x_15_3  x_15_4  x_15_5  x_15_6  x_15_7  
 x_15_8  x_15_9  x_15_10  x_15_11  x_15_12  x_15_13  x_16_0  x_16_1  
 x_16_2  x_16_3  x_16_4  x_16_5  x_16_6  x_16_7  x_16_8  x_16_9  x_16_10  
 x_16_11  x_16_12  x_16_13  x_17_0  x_17_1  x_17_2  x_17_3  x_17_4  x_17_5  
 x_17_6  x_17_7  x_17_8  x_17_9  x_17_10  x_17_11  x_17_12  x_17_13  
 x_18_0  x_18_1  x_18_2  x_18_3  x_18_4  x_18_5  x_18_6  x_18_7  x_18_8  
 x_18_9  x_18_10  x_18_11  x_18_12  x_18_13  x_19_0  x_19_1  x_19_2  
 x_19_3  x_19_4  x_19_5  x_19_6  x_19_7  x_19_8  x_19_9  x_19_10  x_19_11  
 x_19_12  x_19_13  
END

